* Semi-Definite Problem generated by Rust
*
* Flags: Triangle Free Connected 2-colored graphs
* Basis: Flags of size 5 without type (58 flags)
* 13 groups of linear constraints (70)
* 2/6 Cauchy-Schwarz constraints
* 0 additional constraints on Cauchy-Schwarz matrices
*
* Minimizing: -[|Σ f(F)F|]
* Under the constraints:
* # flag(:5)	≥ 0 (58)
* # [|Σ f(F)F|]	= 1 (1)
* # [|ext({4,id3}, 2) - ext({4,id3}, 3)|]	≥ 0 (1)
* # [|ext({4,id4}, 3) - ext({4,id4}, 0)|]	≥ 0 (1)
* # [|ext({4,id6}, 1) - ext({4,id6}, 2)|]	≥ 0 (1)
* # [|ext({4,id8}, 2) - ext({4,id8}, 3)|]	≥ 0 (1)
* # [|ext({4,id9}, 0) - ext({4,id9}, 2)|]	≥ 0 (1)
* # [|ext({4,id9}, 2) - ext({4,id9}, 3)|]	≥ 0 (1)
* # [|ext({4,id10}, 1) - ext({4,id10}, 2)|]	≥ 0 (1)
* # [|ext({4,id10}, 2) - ext({4,id10}, 3)|]	≥ 0 (1)
* # [|ext({4,id11}, 3) - ext({4,id11}, 0)|]	≥ 0 (1)
* # [|ext({4,id13}, 0) - ext({4,id13}, 1)|]	≥ 0 (1)
* # [|ext({4,id15}, 1) - ext({4,id15}, 3)|]	≥ 0 (1)
* # Cauchy-Schwarz: 4x4; Type { size: 3, id: 1, phantom: PhantomData<flag_algebra::flag::SubClass<flag_algebra::flags::colored::Colored<flag_algebra::flags::graph::Graph, 2>, bounded_pentagon::TriangleFreeConnected>> }
* # Cauchy-Schwarz: 4x4; Type { size: 3, id: 2, phantom: PhantomData<flag_algebra::flag::SubClass<flag_algebra::flags::colored::Colored<flag_algebra::flags::graph::Graph, 2>, bounded_pentagon::TriangleFreeConnected>> }
*
58
15
-58 -2 -1 -1 -1 -1 -1 -1 -1 -1 -1 -1 -1 6 7 
-0 -0 -0 -0 -0 -0 -0 -0 -0.016666666666666666 -0 -0 -0 -0 -0 -0 -0 -0 -0 -0 -0 -0 -0 -0 -0 -0 -0 -0 -0 -0 -0 -0 -0 -0 -0 -0 -0 -0.008333333333333333 -0 -0 -0 -0 -0 -0 -0 -0 -0 -0 -0 -0 -0 -0 -0 -0 -0 -0.016666666666666666 -0 -0 -0 

0 2 1 1 5
0 2 2 2 -5

1 1 1 1 1
2 1 2 2 1
3 1 3 3 1
4 1 4 4 1
5 1 5 5 1
6 1 6 6 1
7 1 7 7 1
8 1 8 8 1
9 1 9 9 1
10 1 10 10 1
11 1 11 11 1
12 1 12 12 1
13 1 13 13 1
14 1 14 14 1
15 1 15 15 1
16 1 16 16 1
17 1 17 17 1
18 1 18 18 1
19 1 19 19 1
20 1 20 20 1
21 1 21 21 1
22 1 22 22 1
23 1 23 23 1
24 1 24 24 1
25 1 25 25 1
26 1 26 26 1
27 1 27 27 1
28 1 28 28 1
29 1 29 29 1
30 1 30 30 1
31 1 31 31 1
32 1 32 32 1
33 1 33 33 1
34 1 34 34 1
35 1 35 35 1
36 1 36 36 1
37 1 37 37 1
38 1 38 38 1
39 1 39 39 1
40 1 40 40 1
41 1 41 41 1
42 1 42 42 1
43 1 43 43 1
44 1 44 44 1
45 1 45 45 1
46 1 46 46 1
47 1 47 47 1
48 1 48 48 1
49 1 49 49 1
50 1 50 50 1
51 1 51 51 1
52 1 52 52 1
53 1 53 53 1
54 1 54 54 1
55 1 55 55 1
56 1 56 56 1
57 1 57 57 1
58 1 58 58 1
6 2 1 1 1
6 2 2 2 -1
4 3 1 1 -4
5 3 1 1 -6
12 3 1 1 2
24 3 1 1 2
32 3 1 1 4
6 4 1 1 24
13 4 1 1 -4
15 4 1 1 -4
18 4 1 1 -2
25 4 1 1 -2
33 4 1 1 -12
34 4 1 1 -6
18 5 1 1 -2
40 5 1 1 2
55 5 1 1 2
11 6 1 1 2
12 6 1 1 1
15 6 1 1 -2
22 6 1 1 1
24 6 1 1 2
25 6 1 1 -2
7 7 1 1 2
16 7 1 1 -2
26 7 1 1 -6
27 7 1 1 -2
35 7 1 1 2
44 7 1 1 1
57 7 1 1 4
7 8 1 1 -2
26 8 1 1 6
27 8 1 1 2
35 8 1 1 -4
51 8 1 1 -2
8 9 1 1 1
17 9 1 1 -1
27 9 1 1 -2
28 9 1 1 -2
38 9 1 1 1
46 9 1 1 1
58 9 1 1 2
8 10 1 1 -1
27 10 1 1 2
28 10 1 1 2
36 10 1 1 -2
38 10 1 1 -1
52 10 1 1 -1
18 11 1 1 2
37 11 1 1 1
44 11 1 1 -1
46 11 1 1 -1
53 11 1 1 2
57 11 1 1 -4
58 11 1 1 -2
35 12 1 1 2
36 12 1 1 2
40 12 1 1 -2
51 12 1 1 2
52 12 1 1 1
53 12 1 1 -2
8 13 1 1 1
12 13 1 1 1
15 13 1 1 -2
31 13 1 1 4
32 13 1 1 4
34 13 1 1 -6

2 14 2 2 24
3 14 2 3 6
4 14 3 3 4
7 14 1 6 2
7 14 2 4 2
7 14 2 5 2
7 14 2 6 2
8 14 3 4 1
8 14 3 5 1
11 14 3 6 2
13 14 4 6 2
13 14 5 6 2
16 14 1 3 2
18 14 4 4 2
18 14 5 5 2
20 14 2 4 2
20 14 2 5 2
22 14 3 4 1
22 14 3 5 1
26 14 1 2 6
27 14 1 3 2
30 14 2 6 12
31 14 3 6 4
33 14 6 6 12
35 14 1 4 2
35 14 1 5 2
40 14 4 5 2
44 14 1 4 1
44 14 1 5 1
47 14 1 1 4
55 14 4 5 2
57 14 1 6 4
3 15 2 2 6
4 15 2 3 4
5 15 3 3 6
8 15 1 7 1
8 15 2 6 1
8 15 2 7 1
9 15 3 5 2
9 15 5 7 2
10 15 3 6 2
11 15 2 4 2
12 15 3 4 1
12 15 3 7 1
14 15 6 7 2
15 15 4 7 2
16 15 2 5 2
16 15 5 5 2
17 15 1 3 1
17 15 3 5 1
17 15 5 6 1
19 15 6 6 2
21 15 2 6 2
22 15 2 4 1
23 15 3 6 1
24 15 3 4 2
25 15 4 4 2
27 15 1 2 2
28 15 1 3 2
31 15 2 7 4
32 15 3 7 4
34 15 7 7 6
36 15 1 6 2
37 15 4 5 1
38 15 1 4 1
41 15 4 6 1
43 15 1 5 2
45 15 1 6 1
46 15 1 4 1
48 15 1 1 2
55 15 4 5 2
56 15 4 6 2
58 15 1 7 2
